#######################################
### Exact MIP solver for the HHCRSP ###
#######################################
-- Instance file: new-instances/HHCRSP_200_40_30_1.0_R_R.txt
-- Max threads: 4
-- Time limit: 999999 seconds
-- Use initial solution: No
Trivial flow violations prevented generating 351339 variables.
Version identifier: 20.1.0.0 | 2020-11-10 | 9bedb6d68
CPXPARAM_Threads                                 4
CPXPARAM_TimeLimit                               999999
Parallel mode: deterministic, using up to 4 threads for concurrent optimization:
 * Starting dual Simplex on 1 thread...
 * Starting Barrier on 3 threads...
Tried aggregator 1 time.
LP Presolve eliminated 20766 rows and 4556 columns.
Reduced LP has 376182 rows, 359004 columns, and 6258259 nonzeros.
Presolve time = 14.66 sec. (1459.48 ticks)
Symmetry aggregator did 568631 additional substitutions.
Initializing dual steep norms . . .

Iteration log . . .
Iteration:     1   Dual objective     =             0.666667

Dual crossover.
  Dual:  Fixing 982 variables.
      981 DMoves:  Infeasibility  4.02067268e-13  Objective  3.43666667e+02
        0 DMoves:  Infeasibility  2.36505260e-13  Objective  3.43666667e+02
  Dual:  Pushed 64, exchanged 918.
  Primal:  Fixing 586 variables.
      585 PMoves:  Infeasibility  0.00000000e+00  Objective  3.43666667e+02
        0 PMoves:  Infeasibility  0.00000000e+00  Objective  3.43666667e+02
  Primal:  Pushed 476, exchanged 110.

Dual simplex solved model.


Solution status from MIP model:
-- Processing time: 23.559 sec.
-- Memory used: 411.921 MB
-- Best bound: inf
-- Obj value: 343.667
-- Gap: inf%
-- Total distance: 1031
-- Total tardiness: 0
-- Largest tardiness: 0
